(set-logic QF_LIA)
(declare-fun x0 () Int)
(declare-fun x1 () Int)
(declare-fun x2 () Int)
(declare-fun x3 () Int)
(declare-fun x4 () Int)
(declare-fun x5 () Int)
(declare-fun x6 () Int)
(declare-fun x7 () Int)
(declare-fun x8 () Int)
(declare-fun x9 () Int)
(declare-fun A0 () Bool)
(declare-fun A1 () Bool)
(declare-fun A2 () Bool)
(declare-fun A3 () Bool)
(declare-fun A4 () Bool)
(declare-fun A5 () Bool)
(declare-fun A6 () Bool)
(declare-fun A7 () Bool)
(declare-fun A8 () Bool)
(declare-fun A9 () Bool)
(assert (let ((.def_0 (not A2))) (let ((.def_1 (* (- 1) x1))) (let ((.def_2 (< .def_1 (- 1)))) (let ((.def_3 (not .def_2))) (let ((.def_4 (and .def_3 .def_0))) (let ((.def_5 (not .def_4))) (let ((.def_6 (not A0))) (let ((.def_7 (and A9 .def_6))) (let ((.def_8 (not .def_7))) (let ((.def_9 (and .def_8 .def_5))) (let ((.def_10 (* 1 x1))) (let ((.def_11 (* (- 1) x0))) (let ((.def_12 (+ .def_11 .def_10))) (let ((.def_13 (< .def_12 (- 1)))) (let ((.def_14 (* 1 x4))) (let ((.def_15 (< .def_14 1))) (let ((.def_16 (or .def_15 .def_13))) (let ((.def_17 (* (- 1) x7))) (let ((.def_18 (< .def_17 1))) (let ((.def_19 (or A2 .def_18))) (let ((.def_20 (or .def_19 .def_16))) (let ((.def_21 (or .def_20 .def_9))) (let ((.def_22 (or .def_18 A4))) (let ((.def_23 (and .def_0 A7))) (let ((.def_24 (or .def_23 .def_22))) (let ((.def_25 (* 1 x7))) (let ((.def_26 (< .def_25 1))) (let ((.def_27 (not .def_26))) (let ((.def_28 (* (- 1) x4))) (let ((.def_29 (< .def_28 (- 1)))) (let ((.def_30 (and .def_29 .def_27))) (let ((.def_31 (not .def_30))) (let ((.def_32 (* (- 1) x2))) (let ((.def_33 (+ .def_32 .def_17))) (let ((.def_34 (< .def_33 1))) (let ((.def_35 (* 1 x3))) (let ((.def_36 (< .def_35 1))) (let ((.def_37 (not .def_36))) (let ((.def_38 (or .def_37 .def_34))) (let ((.def_39 (not .def_38))) (let ((.def_40 (or .def_39 .def_31))) (let ((.def_41 (not .def_40))) (let ((.def_42 (or .def_41 .def_24))) (let ((.def_43 (not .def_42))) (let ((.def_44 (or .def_43 .def_21))) (let ((.def_45 (not A6))) (let ((.def_46 (* 1 x5))) (let ((.def_47 (* 1 x9))) (let ((.def_48 (+ .def_47 .def_46))) (let ((.def_49 (< .def_48 (- 1)))) (let ((.def_50 (or .def_49 .def_45))) (let ((.def_51 (not .def_50))) (let ((.def_52 (not A1))) (let ((.def_53 (+ .def_47 .def_11))) (let ((.def_54 (< .def_53 (- 1)))) (let ((.def_55 (= .def_54 .def_52))) (let ((.def_56 (or .def_55 .def_51))) (let ((.def_57 (< .def_35 (- 1)))) (let ((.def_58 (not .def_57))) (let ((.def_59 (or A6 .def_58))) (let ((.def_60 (not .def_59))) (let ((.def_61 (* (- 1) x5))) (let ((.def_62 (< .def_61 (- 1)))) (let ((.def_63 (not .def_62))) (let ((.def_64 (and A5 .def_63))) (let ((.def_65 (and .def_64 .def_60))) (let ((.def_66 (not .def_65))) (let ((.def_67 (and .def_66 .def_56))) (let ((.def_68 (+ .def_46 .def_35))) (let ((.def_69 (< .def_68 1))) (let ((.def_70 (not A3))) (let ((.def_71 (= .def_70 .def_69))) (let ((.def_72 (and A2 A5))) (let ((.def_73 (= .def_72 .def_71))) (let ((.def_74 (+ .def_17 .def_47))) (let ((.def_75 (< .def_74 (- 1)))) (let ((.def_76 (not .def_75))) (let ((.def_77 (and .def_52 .def_76))) (let ((.def_78 (not .def_77))) (let ((.def_79 (* 1 x8))) (let ((.def_80 (* (- 1) x6))) (let ((.def_81 (+ .def_80 .def_79))) (let ((.def_82 (< .def_81 1))) (let ((.def_83 (or A4 .def_82))) (let ((.def_84 (not .def_83))) (let ((.def_85 (and .def_84 .def_78))) (let ((.def_86 (not .def_85))) (let ((.def_87 (and .def_86 .def_73))) (let ((.def_88 (or .def_87 .def_67))) (let ((.def_89 (and .def_88 .def_44))) (let ((.def_90 (not .def_89))) (let ((.def_91 (not A4))) (let ((.def_92 (or .def_91 A1))) (let ((.def_93 (< .def_11 1))) (let ((.def_94 (not .def_93))) (let ((.def_95 (and .def_94 A1))) (let ((.def_96 (and .def_95 .def_92))) (let ((.def_97 (* (- 1) x8))) (let ((.def_98 (+ .def_61 .def_97))) (let ((.def_99 (< .def_98 (- 1)))) (let ((.def_100 (not A5))) (let ((.def_101 (and .def_100 .def_99))) (let ((.def_102 (or A1 .def_100))) (let ((.def_103 (and .def_102 .def_101))) (let ((.def_104 (or .def_103 .def_96))) (let ((.def_105 (not .def_104))) (let ((.def_106 (+ .def_46 .def_1))) (let ((.def_107 (< .def_106 (- 1)))) (let ((.def_108 (+ .def_11 .def_79))) (let ((.def_109 (< .def_108 1))) (let ((.def_110 (not .def_109))) (let ((.def_111 (= .def_110 .def_107))) (let ((.def_112 (* (- 1) x3))) (let ((.def_113 (+ .def_79 .def_112))) (let ((.def_114 (< .def_113 (- 1)))) (let ((.def_115 (not .def_114))) (let ((.def_116 (or .def_115 A0))) (let ((.def_117 (and .def_116 .def_111))) (let ((.def_118 (not .def_117))) (let ((.def_119 (< .def_25 (- 1)))) (let ((.def_120 (not .def_119))) (let ((.def_121 (or A2 .def_120))) (let ((.def_122 (not A7))) (let ((.def_123 (or .def_122 .def_52))) (let ((.def_124 (not .def_123))) (let ((.def_125 (and .def_124 .def_121))) (let ((.def_126 (not .def_125))) (let ((.def_127 (and .def_126 .def_118))) (let ((.def_128 (not .def_127))) (let ((.def_129 (and .def_128 .def_105))) (let ((.def_130 (+ .def_97 .def_14))) (let ((.def_131 (< .def_130 (- 1)))) (let ((.def_132 (not .def_131))) (let ((.def_133 (= .def_52 .def_132))) (let ((.def_134 (not .def_133))) (let ((.def_135 (< .def_112 (- 1)))) (let ((.def_136 (not .def_135))) (let ((.def_137 (and .def_136 .def_52))) (let ((.def_138 (or .def_137 .def_134))) (let ((.def_139 (not .def_138))) (let ((.def_140 (or A8 A5))) (let ((.def_141 (not .def_140))) (let ((.def_142 (* 1 x0))) (let ((.def_143 (* (- 1) x9))) (let ((.def_144 (+ .def_143 .def_142))) (let ((.def_145 (< .def_144 (- 1)))) (let ((.def_146 (and A5 .def_145))) (let ((.def_147 (not .def_146))) (let ((.def_148 (or .def_147 .def_141))) (let ((.def_149 (and .def_148 .def_139))) (let ((.def_150 (not .def_149))) (let ((.def_151 (and A1 A0))) (let ((.def_152 (not .def_151))) (let ((.def_153 (+ .def_143 .def_112))) (let ((.def_154 (< .def_153 1))) (let ((.def_155 (or .def_100 .def_154))) (let ((.def_156 (not .def_155))) (let ((.def_157 (= .def_156 .def_152))) (let ((.def_158 (+ .def_46 .def_79))) (let ((.def_159 (< .def_158 1))) (let ((.def_160 (not .def_159))) (let ((.def_161 (and A7 .def_160))) (let ((.def_162 (not .def_161))) (let ((.def_163 (< .def_46 1))) (let ((.def_164 (= A3 .def_163))) (let ((.def_165 (not .def_164))) (let ((.def_166 (and .def_165 .def_162))) (let ((.def_167 (or .def_166 .def_157))) (let ((.def_168 (not .def_167))) (let ((.def_169 (and .def_168 .def_150))) (let ((.def_170 (not .def_169))) (let ((.def_171 (or .def_170 .def_129))) (let ((.def_172 (not .def_171))) (let ((.def_173 (= .def_172 .def_90))) (let ((.def_174 (<= x9 1))) (let ((.def_175 (<= 0 x9))) (let ((.def_176 (<= x8 1))) (let ((.def_177 (<= 0 x8))) (let ((.def_178 (<= x7 1))) (let ((.def_179 (<= 0 x7))) (let ((.def_180 (<= x6 1))) (let ((.def_181 (<= 0 x6))) (let ((.def_182 (<= x5 1))) (let ((.def_183 (<= 0 x5))) (let ((.def_184 (<= x4 1))) (let ((.def_185 (<= 0 x4))) (let ((.def_186 (<= x3 1))) (let ((.def_187 (<= 0 x3))) (let ((.def_188 (<= x2 1))) (let ((.def_189 (<= 0 x2))) (let ((.def_190 (<= x1 1))) (let ((.def_191 (<= 0 x1))) (let ((.def_192 (<= x0 1))) (let ((.def_193 (<= 0 x0))) (let ((.def_194 (and .def_193 .def_192 .def_191 .def_190 .def_189 .def_188 .def_187 .def_186 .def_185 .def_184 .def_183 .def_182 .def_181 .def_180 .def_179 .def_178 .def_177 .def_176 .def_175 .def_174 .def_173))) .def_194))))))))))))))))))))))))))))))))))))))))))))))))))))))))))))))))))))))))))))))))))))))))))))))))))))))))))))))))))))))))))))))))))))))))))))))))))))))))))))))))))))))))))))))))))))))))))))))))))))
(check-sat)
